NAME: random-34-9875
TYPE: TSP
COMMENT: size=34 seed=9875
DIMENSION: 70
EDGE_WEIGHT_TYPE: EUC_2D
NODE_COORD_SECTION
+0 125 69
-0 125 69
+1 883 186
-1 792 409
+2 549 565
-2 811 912
+3 865 123
-3 656 315
+4 456 703
-4 458 480
+5 191 568
-5 423 739
+6 315 34
-6 149 571
+7 771 297
-7 992 428
+8 623 829
-8 354 948
+9 816 932
-9 83 646
+10 92 806
-10 883 967
+11 224 976
-11 161 433
+12 379 452
-12 732 976
+13 344 42
-13 591 82
+14 312 492
-14 984 219
+15 99 396
-15 969 950
+16 154 309
-16 559 935
+17 227 359
-17 982 304
+18 433 494
-18 418 108
+19 201 382
-19 82 940
+20 47 911
-20 443 69
+21 644 873
-21 185 39
+22 382 972
-22 106 97
+23 373 754
-23 461 212
+24 857 952
-24 877 6
+25 40 735
-25 233 780
+26 376 935
-26 694 453
+27 31 466
-27 77 442
+28 903 113
-28 635 945
+29 931 425
-29 121 811
+30 494 358
-30 987 123
+31 170 177
-31 8 7
+32 708 405
-32 177 342
+33 602 484
-33 702 659
+34 827 968
-34 819 925
PRECEDENCE_SECTION
+0 -0
+1 -1
+2 -2
+3 -3
+4 -4
+5 -5
+6 -6
+7 -7
+8 -8
+9 -9
+10 -10
+11 -11
+12 -12
+13 -13
+14 -14
+15 -15
+16 -16
+17 -17
+18 -18
+19 -19
+20 -20
+21 -21
+22 -22
+23 -23
+24 -24
+25 -25
+26 -26
+27 -27
+28 -28
+29 -29
+30 -30
+31 -31
+32 -32
+33 -33
+34 -34
EOF
